// Hard instance from http://www.cs.mu.oz.au/671/proj3/node5.html
n = 9;

instance = [
  [0,0,0, 0,0,3, 0,6,0],
  [0,0,0, 0,0,0, 0,1,0],
  [0,9,7, 5,0,0, 0,8,0],
  [0,0,0, 0,9,0, 2,0,0],
  [0,0,8, 0,7,0, 4,0,0],
  [0,0,3, 0,6,0, 0,0,0],
  [0,1,0, 0,0,2, 8,9,0],
  [0,4,0, 0,0,0, 0,0,0],
  [0,5,0, 1,0,0, 0,0,0]
];

